 C  N  O Pd                             
   1.00000000000000     
    12.3716611850922451    0.0000000000000000    0.0000000000000000
     0.0000000000000000   29.8345361756887719    0.0000000000000000
     0.0000000000000000    0.0000000000000000   29.7999003756887646
   C    N    O    Pd
   154     4     1     1
Direct
  0.0522828794226413  0.3412749796967489  0.4402287643880243
  0.0525705470555593  0.6764694056158618  0.5793832811122570
  0.0523457157318248  0.3230066180608446  0.4845298349906670
  0.1524671186706357  0.3185146458542789  0.5079744308464100
  0.1522354792696134  0.3545183850735754  0.4202272777338862
  0.0525555202915271  0.3233191821301489  0.5793923343606835
  0.1526420695627024  0.3190361199654816  0.5559153256463532
  0.0503876684054205  0.4083404290005177  0.6906654795670875
  0.0525926982275635  0.3417499287434254  0.6236116951513466
  0.1526579986295360  0.6807476978311513  0.5559025545558782
  0.1525379592086793  0.3563214813458728  0.6428463110067568
  0.1443083359898338  0.4759394829232022  0.7128645490884438
  0.1512114100008262  0.3904010182275996  0.6762362566798785
  0.0475510818749711  0.5475436714895991  0.7092478161107820
  0.1443052020987281  0.5238828703756724  0.7128744117027139
  0.0526060479729011  0.6580506503927168  0.6236089732419003
  0.1525509374797949  0.6434779129825330  0.6428399479337585
  0.3523024739028457  0.3194268876804287  0.5556642677767911
  0.1522745094720790  0.4759676880085948  0.3501322761349783
  0.2527813545257018  0.3245979884143111  0.5792009015187958
  0.4516126955202893  0.6556518742212063  0.6229188802517100
  0.1524822777353165  0.6812781954507017  0.5079619564766560
  0.0522603199759999  0.5915117030612649  0.3731123044399780
  0.0522975852164507  0.6585290935340282  0.4402207277739265
  0.1522477162743030  0.6452962075943134  0.4202100177838588
  0.0522723264397058  0.5472903672025851  0.3547954131992554
  0.1522797934633360  0.5238447028824282  0.3501279306436587
  0.0503924435348821  0.5914947737145440  0.6907007037504940
  0.1522563098201246  0.6114270906763650  0.3863346143082182
  0.0522659258222049  0.4525171729988386  0.3548004412823929
  0.0522486969443392  0.4082972514426757  0.3731226179768257
  0.1522464856879395  0.3883892525053270  0.3863539725678820
  0.2522813992241453  0.3411873301756856  0.4400369606000041
  0.2523062921535484  0.3230477072402778  0.4843565608472247
  0.3522942618247811  0.3186287769472358  0.5078419535369179
  0.3522846409661256  0.3544419508876473  0.4200890813026490
  0.0523583820799089  0.6767907294574869  0.4845233933282458
  0.8522768599641211  0.4083051242259828  0.3731822971753616
  0.1512251293910012  0.6094174309974747  0.6762491951512999
  0.4553697200658178  0.5868295552092562  0.6882706280510860
  0.2522752578381144  0.5473010983978313  0.3547616447390212
  0.3523160301803259  0.3940864586131667  0.6757349666679460
  0.2530322814969210  0.6556653665671988  0.6229273342966835
  0.2492745281377822  0.5868335509296543  0.6882701937966473
  0.3522860166131352  0.5238356871867751  0.3501061078184691
  0.2528001925811694  0.6751774198413258  0.5791789346586711
  0.3523182175873316  0.6803492518282610  0.5556399598828534
  0.3523236589829892  0.6057135714626440  0.6757279880948559
  0.2523213096549526  0.6767565578451027  0.4843372567215312
  0.3523136715318387  0.6811655379444019  0.5078187502725626
  0.2522693651937047  0.5915561686549040  0.3730218113732704
  0.2522955408068981  0.6586323835960002  0.4400095724310233
  0.3522987992607156  0.6453922837513844  0.4200490272089112
  0.3523222646541271  0.6406277361355919  0.6424417591996274
  0.9522660489806185  0.3884201010145674  0.3864701855522057
  0.2522687963094370  0.4525176340087071  0.3547793413198903
  0.3522925259892418  0.6114900575072824  0.3862637071568287
  0.2530200491033554  0.3441126192292217  0.6229497722117188
  0.5603384014676251  0.5238822736618260  0.7128930694000815
  0.2492668545534542  0.4129763917230775  0.6882659071151380
  0.3523150554954384  0.3591539799885979  0.6424646814780317
  0.3522805022888562  0.4759861520415640  0.3501182839516090
  0.2522601829538615  0.4082686160305329  0.3730534921033026
  0.3522783723674792  0.3883465415989491  0.3863082821381951
  0.4522907544996926  0.3411897945078550  0.4400383895842026
  0.4522766922965218  0.3230510675500540  0.4843574273137108
  0.0475366025247226  0.4522892692595804  0.7092149739576072
  0.5521224959531708  0.3185192811546145  0.5079727124078133
  0.4518278446677755  0.3246042294456259  0.5791981233345922
  0.5519604613622207  0.3190454231854076  0.5559126222890143
  0.4553655557272975  0.4129800032322350  0.6882678459656901
  0.4516067988874113  0.3441199252447191  0.6229462553156324
  0.5520887729999657  0.3563336226605642  0.6428419946879131
  0.5603319667170723  0.4759380277977741  0.7128847267256688
  0.5534228753320107  0.3904067885927915  0.6762375936714591
  0.5523339580576874  0.3545189602334347  0.4202286330943394
  0.9523817966955761  0.3183200862445048  0.5080521759357097
  0.5534196181724909  0.6094053545518321  0.6762426872660328
  0.9522781602706303  0.3541897170996293  0.6437440906262850
  0.5519751033661109  0.6807350574644957  0.5558923261837236
  0.5520931204094026  0.6434585938353337  0.6428278709435489
  0.4522949242956358  0.6767579831881889  0.4843305013603114
  0.5521383832410152  0.6812771608220061  0.5079517507953142
  0.4523123081131644  0.5915660042856530  0.3730105574889819
  0.4523091909164236  0.6586419904151057  0.4399988637429075
  0.5523519738775988  0.6453142979261699  0.4201898849220527
  0.7523061053229370  0.3545834507498000  0.4203641083837297
  0.4522968982327100  0.5473067232640005  0.3547556167596113
  0.5523309232931908  0.6114448993034287  0.3863120468560695
  0.4522908191868851  0.4525203727393148  0.3547839724687876
  0.5522873330303213  0.4759725430728921  0.3501349327735284
  0.4522977305466114  0.4082715308770943  0.3730564750009790
  0.5523147564550612  0.3883930384275942  0.3863580472821866
  0.6522915624561847  0.3412738617298032  0.4402290324293148
  0.7522082148378928  0.3183235730410132  0.5080513141156615
  0.6520503223748264  0.3233299989144385  0.5793882117709188
  0.6523252924541723  0.5915266533921866  0.3730921042296558
  0.6520314700323979  0.6580284223103021  0.6235948742817214
  0.6542500826755102  0.4083430090447422  0.6906735283528675
  0.6520274080105892  0.3417637263593747  0.6236061659580656
  0.7523451732748399  0.3541980385954631  0.6437411226692333
  0.6571045703062879  0.4522881294623033  0.7092362806031360
  0.7550262868706810  0.4760287131851157  0.7142804792371464
  0.7529801282279891  0.3877300708605134  0.6778791112664919
  0.6570943310236785  0.5475400504681502  0.7092576497054210
  0.8523216853734539  0.4519338466516558  0.7096168398729432
  0.7521512385816749  0.3182671469845957  0.5559809303750995
  0.6542521406467330  0.5914865899449708  0.6906974211561234
  0.7529782173436104  0.6121053032914432  0.6779085374078591
  0.6520618658028638  0.6764511391289858  0.5793728891878445
  0.7521638067090421  0.6815238814740638  0.5559731401343697
  0.7523465858135552  0.6456149450221673  0.6437478484425867
  0.6522605055705526  0.6767966592312717  0.4845125098487344
  0.7522274710708103  0.6814723025500697  0.5080427109732284
  0.7550355701329750  0.5238045421383646  0.7142972194112431
  0.5522911776514334  0.5238512529087984  0.3501205101494520
  0.6522409393768172  0.3230075955790142  0.4845292991430483
  0.6523098106029295  0.6585459868752110  0.4402036195994015
  0.4518401854108234  0.6751660133272566  0.5791725334260320
  0.7522903986376690  0.5238366784308610  0.3501303240956233
  0.7523086372931118  0.6113963313838013  0.3864508111134697
  0.6522933820923882  0.4525222849466246  0.3548060774323787
  0.7522873932899614  0.4759790059819053  0.3501375829778368
  0.6523087981708500  0.4083018841896333  0.3731261917025961
  0.7522913743985171  0.3884211945312330  0.3864714253135091
  0.8522850210868071  0.3413141150944412  0.4402953804879672
  0.9516534252668976  0.3877263627408354  0.6778788736935581
  0.8522933135090369  0.3229938908052503  0.4845920751002808
  0.9522615065890960  0.3545839469040502  0.4203653399739409
  0.8523036994770763  0.3227355041156628  0.5794465655890022
  0.9524518420131258  0.3182603535485313  0.5559826587544165
  0.8523186362914856  0.4075474719845360  0.6915193895514449
  0.8523086087200866  0.3408133434767535  0.6237968387577126
  0.8523223625210221  0.5479082298395355  0.7096572319353669
  0.7523271761076558  0.6452296957913148  0.4203479510793997
  0.9496174036805627  0.4760301517554453  0.7142672572412820
  0.9522720168171119  0.4759749358714203  0.3501332401969250
  0.6522998274041072  0.5473005012080847  0.3547833588189206
  0.8523158240231368  0.6589920963673066  0.6238007452600201
  0.8523220899272914  0.5922990408359610  0.6915670012736044
  0.9516629230937568  0.6121144615211520  0.6779152232058863
  0.8523130411858304  0.6770604386573709  0.5794445179531067
  0.8522938115193526  0.5915056723569521  0.3731683176474263
  0.9522898797110315  0.6456292524010578  0.6437568135674567
  0.8523117564652836  0.6768036151186578  0.4845860787382534
  0.9524633974752774  0.6815332558377065  0.5559794081834539
  0.9523946238718324  0.6814741799795669  0.5080492323813388
  0.8523040528287567  0.6584872835934164  0.4402891876329207
  0.9522777217828846  0.6452200781363331  0.4203583028104205
  0.8522873891770502  0.5472811814368868  0.3548030259495718
  0.9522769261832806  0.5238315394660447  0.3501320770120557
  0.9522794042661289  0.6113876701192851  0.3864617947397306
  0.8522785218837683  0.4525274515051336  0.3548120984358007
  0.9496140753657372  0.5238056344137618  0.7142900173094588
  0.2404726558103434  0.5453790746829910  0.7067514883931239
  0.4641725663873260  0.4544362337473444  0.7067494441802182
  0.4641691783134760  0.5453805883957585  0.7067659989516315
  0.2404631973637805  0.4544342426693007  0.7067429841103916
  0.3522976158440940  0.4998441370409736  0.7859081138187562
  0.3523207567762725  0.4999048454986337  0.7122063674413042
 
  0.00000000E+00  0.00000000E+00  0.00000000E+00
  0.00000000E+00  0.00000000E+00  0.00000000E+00
  0.00000000E+00  0.00000000E+00  0.00000000E+00
  0.00000000E+00  0.00000000E+00  0.00000000E+00
  0.00000000E+00  0.00000000E+00  0.00000000E+00
  0.00000000E+00  0.00000000E+00  0.00000000E+00
  0.00000000E+00  0.00000000E+00  0.00000000E+00
  0.00000000E+00  0.00000000E+00  0.00000000E+00
  0.00000000E+00  0.00000000E+00  0.00000000E+00
  0.00000000E+00  0.00000000E+00  0.00000000E+00
  0.00000000E+00  0.00000000E+00  0.00000000E+00
  0.00000000E+00  0.00000000E+00  0.00000000E+00
  0.00000000E+00  0.00000000E+00  0.00000000E+00
  0.00000000E+00  0.00000000E+00  0.00000000E+00
  0.00000000E+00  0.00000000E+00  0.00000000E+00
  0.00000000E+00  0.00000000E+00  0.00000000E+00
  0.00000000E+00  0.00000000E+00  0.00000000E+00
  0.00000000E+00  0.00000000E+00  0.00000000E+00
  0.00000000E+00  0.00000000E+00  0.00000000E+00
  0.00000000E+00  0.00000000E+00  0.00000000E+00
  0.00000000E+00  0.00000000E+00  0.00000000E+00
  0.00000000E+00  0.00000000E+00  0.00000000E+00
  0.00000000E+00  0.00000000E+00  0.00000000E+00
  0.00000000E+00  0.00000000E+00  0.00000000E+00
  0.00000000E+00  0.00000000E+00  0.00000000E+00
  0.00000000E+00  0.00000000E+00  0.00000000E+00
  0.00000000E+00  0.00000000E+00  0.00000000E+00
  0.00000000E+00  0.00000000E+00  0.00000000E+00
  0.00000000E+00  0.00000000E+00  0.00000000E+00
  0.00000000E+00  0.00000000E+00  0.00000000E+00
  0.00000000E+00  0.00000000E+00  0.00000000E+00
  0.00000000E+00  0.00000000E+00  0.00000000E+00
  0.00000000E+00  0.00000000E+00  0.00000000E+00
  0.00000000E+00  0.00000000E+00  0.00000000E+00
  0.00000000E+00  0.00000000E+00  0.00000000E+00
  0.00000000E+00  0.00000000E+00  0.00000000E+00
  0.00000000E+00  0.00000000E+00  0.00000000E+00
  0.00000000E+00  0.00000000E+00  0.00000000E+00
  0.00000000E+00  0.00000000E+00  0.00000000E+00
  0.00000000E+00  0.00000000E+00  0.00000000E+00
  0.00000000E+00  0.00000000E+00  0.00000000E+00
  0.00000000E+00  0.00000000E+00  0.00000000E+00
  0.00000000E+00  0.00000000E+00  0.00000000E+00
  0.00000000E+00  0.00000000E+00  0.00000000E+00
  0.00000000E+00  0.00000000E+00  0.00000000E+00
  0.00000000E+00  0.00000000E+00  0.00000000E+00
  0.00000000E+00  0.00000000E+00  0.00000000E+00
  0.00000000E+00  0.00000000E+00  0.00000000E+00
  0.00000000E+00  0.00000000E+00  0.00000000E+00
  0.00000000E+00  0.00000000E+00  0.00000000E+00
  0.00000000E+00  0.00000000E+00  0.00000000E+00
  0.00000000E+00  0.00000000E+00  0.00000000E+00
  0.00000000E+00  0.00000000E+00  0.00000000E+00
  0.00000000E+00  0.00000000E+00  0.00000000E+00
  0.00000000E+00  0.00000000E+00  0.00000000E+00
  0.00000000E+00  0.00000000E+00  0.00000000E+00
  0.00000000E+00  0.00000000E+00  0.00000000E+00
  0.00000000E+00  0.00000000E+00  0.00000000E+00
  0.00000000E+00  0.00000000E+00  0.00000000E+00
  0.00000000E+00  0.00000000E+00  0.00000000E+00
  0.00000000E+00  0.00000000E+00  0.00000000E+00
  0.00000000E+00  0.00000000E+00  0.00000000E+00
  0.00000000E+00  0.00000000E+00  0.00000000E+00
  0.00000000E+00  0.00000000E+00  0.00000000E+00
  0.00000000E+00  0.00000000E+00  0.00000000E+00
  0.00000000E+00  0.00000000E+00  0.00000000E+00
  0.00000000E+00  0.00000000E+00  0.00000000E+00
  0.00000000E+00  0.00000000E+00  0.00000000E+00
  0.00000000E+00  0.00000000E+00  0.00000000E+00
  0.00000000E+00  0.00000000E+00  0.00000000E+00
  0.00000000E+00  0.00000000E+00  0.00000000E+00
  0.00000000E+00  0.00000000E+00  0.00000000E+00
  0.00000000E+00  0.00000000E+00  0.00000000E+00
  0.00000000E+00  0.00000000E+00  0.00000000E+00
  0.00000000E+00  0.00000000E+00  0.00000000E+00
  0.00000000E+00  0.00000000E+00  0.00000000E+00
  0.00000000E+00  0.00000000E+00  0.00000000E+00
  0.00000000E+00  0.00000000E+00  0.00000000E+00
  0.00000000E+00  0.00000000E+00  0.00000000E+00
  0.00000000E+00  0.00000000E+00  0.00000000E+00
  0.00000000E+00  0.00000000E+00  0.00000000E+00
  0.00000000E+00  0.00000000E+00  0.00000000E+00
  0.00000000E+00  0.00000000E+00  0.00000000E+00
  0.00000000E+00  0.00000000E+00  0.00000000E+00
  0.00000000E+00  0.00000000E+00  0.00000000E+00
  0.00000000E+00  0.00000000E+00  0.00000000E+00
  0.00000000E+00  0.00000000E+00  0.00000000E+00
  0.00000000E+00  0.00000000E+00  0.00000000E+00
  0.00000000E+00  0.00000000E+00  0.00000000E+00
  0.00000000E+00  0.00000000E+00  0.00000000E+00
  0.00000000E+00  0.00000000E+00  0.00000000E+00
  0.00000000E+00  0.00000000E+00  0.00000000E+00
  0.00000000E+00  0.00000000E+00  0.00000000E+00
  0.00000000E+00  0.00000000E+00  0.00000000E+00
  0.00000000E+00  0.00000000E+00  0.00000000E+00
  0.00000000E+00  0.00000000E+00  0.00000000E+00
  0.00000000E+00  0.00000000E+00  0.00000000E+00
  0.00000000E+00  0.00000000E+00  0.00000000E+00
  0.00000000E+00  0.00000000E+00  0.00000000E+00
  0.00000000E+00  0.00000000E+00  0.00000000E+00
  0.00000000E+00  0.00000000E+00  0.00000000E+00
  0.00000000E+00  0.00000000E+00  0.00000000E+00
  0.00000000E+00  0.00000000E+00  0.00000000E+00
  0.00000000E+00  0.00000000E+00  0.00000000E+00
  0.00000000E+00  0.00000000E+00  0.00000000E+00
  0.00000000E+00  0.00000000E+00  0.00000000E+00
  0.00000000E+00  0.00000000E+00  0.00000000E+00
  0.00000000E+00  0.00000000E+00  0.00000000E+00
  0.00000000E+00  0.00000000E+00  0.00000000E+00
  0.00000000E+00  0.00000000E+00  0.00000000E+00
  0.00000000E+00  0.00000000E+00  0.00000000E+00
  0.00000000E+00  0.00000000E+00  0.00000000E+00
  0.00000000E+00  0.00000000E+00  0.00000000E+00
  0.00000000E+00  0.00000000E+00  0.00000000E+00
  0.00000000E+00  0.00000000E+00  0.00000000E+00
  0.00000000E+00  0.00000000E+00  0.00000000E+00
  0.00000000E+00  0.00000000E+00  0.00000000E+00
  0.00000000E+00  0.00000000E+00  0.00000000E+00
  0.00000000E+00  0.00000000E+00  0.00000000E+00
  0.00000000E+00  0.00000000E+00  0.00000000E+00
  0.00000000E+00  0.00000000E+00  0.00000000E+00
  0.00000000E+00  0.00000000E+00  0.00000000E+00
  0.00000000E+00  0.00000000E+00  0.00000000E+00
  0.00000000E+00  0.00000000E+00  0.00000000E+00
  0.00000000E+00  0.00000000E+00  0.00000000E+00
  0.00000000E+00  0.00000000E+00  0.00000000E+00
  0.00000000E+00  0.00000000E+00  0.00000000E+00
  0.00000000E+00  0.00000000E+00  0.00000000E+00
  0.00000000E+00  0.00000000E+00  0.00000000E+00
  0.00000000E+00  0.00000000E+00  0.00000000E+00
  0.00000000E+00  0.00000000E+00  0.00000000E+00
  0.00000000E+00  0.00000000E+00  0.00000000E+00
  0.00000000E+00  0.00000000E+00  0.00000000E+00
  0.00000000E+00  0.00000000E+00  0.00000000E+00
  0.00000000E+00  0.00000000E+00  0.00000000E+00
  0.00000000E+00  0.00000000E+00  0.00000000E+00
  0.00000000E+00  0.00000000E+00  0.00000000E+00
  0.00000000E+00  0.00000000E+00  0.00000000E+00
  0.00000000E+00  0.00000000E+00  0.00000000E+00
  0.00000000E+00  0.00000000E+00  0.00000000E+00
  0.00000000E+00  0.00000000E+00  0.00000000E+00
  0.00000000E+00  0.00000000E+00  0.00000000E+00
  0.00000000E+00  0.00000000E+00  0.00000000E+00
  0.00000000E+00  0.00000000E+00  0.00000000E+00
  0.00000000E+00  0.00000000E+00  0.00000000E+00
  0.00000000E+00  0.00000000E+00  0.00000000E+00
  0.00000000E+00  0.00000000E+00  0.00000000E+00
  0.00000000E+00  0.00000000E+00  0.00000000E+00
  0.00000000E+00  0.00000000E+00  0.00000000E+00
  0.00000000E+00  0.00000000E+00  0.00000000E+00
  0.00000000E+00  0.00000000E+00  0.00000000E+00
  0.00000000E+00  0.00000000E+00  0.00000000E+00
  0.00000000E+00  0.00000000E+00  0.00000000E+00
  0.00000000E+00  0.00000000E+00  0.00000000E+00
  0.00000000E+00  0.00000000E+00  0.00000000E+00
  0.00000000E+00  0.00000000E+00  0.00000000E+00
  0.00000000E+00  0.00000000E+00  0.00000000E+00
  0.00000000E+00  0.00000000E+00  0.00000000E+00
  0.00000000E+00  0.00000000E+00  0.00000000E+00
  0.00000000E+00  0.00000000E+00  0.00000000E+00
