# SCF input for VASP
# Note that VASP uses the FIRST occurence of a keyword
SYSTEM = Si series 

    PREC = Accurate
   ENCUT = 245.345
  IBRION = -1
     NSW = 0
  NELMIN = 2
   EDIFF = 1.0e-05
  EDIFFG = -0.02
 VOSKOWN = 1
  NBLOCK = 1
#  LVHAR = .TRUE.
   LVTOT = .TRUE.
    NELM = 60
    ALGO = Fast   (blocked Davidson)
     GGA = PE
   ISPIN = 1
  INIWAV = 1
  ISTART = 0
  ICHARG = 2
   LWAVE = .FALSE.
  LCHARG = .TRUE.
 ADDGRID = .FALSE.
LHYPERFINE = .FALSE.
  ISMEAR = 0
   SIGMA = 0.2
   RWIGS = 1.11
#  LSKYM = .TRUE. 
#  LVTOT = .TRUE.
#   LELF = .TRUE.
