 C  N  O Pd 
 1.0000000000000000
    12.3716611850922451    0.0000000000000000    0.0000000000000000
     0.0000000000000000   29.8345361756887719    0.0000000000000000
     0.0000000000000000    0.0000000000000000   29.7999003756887646
 154   4   1   1
Cartesian
  0.6468260699979598 10.1817807276201808 13.1187733212757855
  0.6503849964863080 20.1821509535931334 17.2655640564849442
  0.6476034595252642  9.6367526315231480 14.4389408117707756
  1.8862715340603229  9.5027367242260894 15.1375874326201885
  1.8834057698738231 10.5768915844244109 12.5227310116167345
  0.6501990904529871  9.6460778355561079 17.2658338423861935
  1.8884359672210564  9.5182946624616100 16.5662213215799099
  0.6233791614186748 12.1826473010121710 20.5817624840266120
  0.6506590432812609 10.1959506121348475 18.5835663886244618
  1.8886330362388701 20.3097918174603649 16.5658407443559952
  1.8871479491952083 10.6306861253885057 19.1567560248804192
  1.7853338390506766 14.1994337207108643 21.2432925441958425
  1.8707363318502557 11.6474333013371094 20.1517730794890184
  0.5882858739417101 16.3357114748259598 21.1355142617760592
  1.7852950676117136 15.6298024480467692 21.2435864491185669
  0.6508242018074304 19.6326359345769390 18.5834852759942919
  1.8873085119682536 19.1978650731340998 19.1565664059388681
  4.3585668417958354  9.5299530359895250 16.5587398220783371
  1.8838886383146418 14.2002752063513142 10.4339069471355881
  3.1273252721006566  9.6842304279025058 17.2601291627692213
  5.5871992558632684 19.5610695601108091 18.5629205736366458
  1.8864590768724909 20.3256189678819013 15.1372156976442493
  0.6465469721675956 17.6474773033244823 11.1187095012550010
  0.6470080050963931 19.6469100637844498 13.1185338309762045
  1.8835571619497626 19.2521130495072370 12.5222166668253756
  0.6466955120685576 16.3281542589116064 10.5728679670892340
  1.8839540100642074 15.6286637385887239 10.4337774519270390
  0.6234382377024295 17.6469722241174196 20.5828121611827406
  1.8836634783870254 18.2416436555802299 11.5127330180651217
  0.6466163257975035 13.5006399679541804 10.5730178034657563
  0.6464031759578974 12.1813591186007031 11.1190168436256052
  1.8835419375521862 11.5874132041188389 11.5133098922744850
  3.1211399945020939 10.1791657448131545 13.1130575875010500
  3.1214479613905746  9.6379785081334717 14.4337772595584788
  4.3584652447483512  9.5061417724477888 15.1336396219952967
  4.3583462187447877 10.5746112059392310 12.5186127717334834
  0.6477601632922489 20.1917375013702518 14.4387488508723667
 10.5440805473703758 12.1815939994391211 11.1207952777963879
  1.8709060634972383 18.1816863911895652 20.1521586446483774
  5.6336798906045686 17.5077875938539584 20.5103961474351344
  3.1210640153549649 16.3284744191443956 10.5718616703383326
  4.3587345554676951 11.7573867058435226 20.1368346870740531
  3.1304296555707634 19.5614720979953063 18.5631725033345987
  3.0839400041943756 17.5079068043186901 20.5103832066961829
  4.3583632377834771 15.6283947594905559 10.4331271339104248
  3.1275583301403320 20.1436051572642043 17.2594745525259832
  4.3587616173260635 20.2979043657731388 16.5580154492606333
  4.3588289364295534 18.0711834599079317 20.1366267262913041
  3.1216337528298270 20.1907180071642678 14.4332019985359548
  4.3587053750677587 20.3222578834348369 15.1329481670290864
  3.1209911135548212 17.6488039136865851 11.1160128168823498
  3.1213149493725352 19.6499916748749293 13.1122414227940016
  4.3585213803683747 19.2549794370910874 12.5174191637305796
  4.3588116862652448 19.1128313688868730 19.1447004213310450
 11.7811129160547097 11.5883335550838424 11.5167730276295845
  3.1209840755113616 13.5006537219699201 10.5723890266851335
  4.3584437695791944 18.2435222417751035 11.5106199920176095
  3.1302783205420806 10.2664403869053071 18.5638411509672565
  6.9323168519536464 15.6297846453657883 21.2441424466414475
  3.0838450692090436 12.3209590985676289 20.5102554640141861
  4.3587224969964948 10.7151924086123209 19.1453835029439432
  4.3582950164318284 14.2008260722110045 10.4334899814650690
  3.1208775139945226 12.1805047943613793 11.1169568994812025
  4.3582686657662384 11.5861389440375149 11.5119483220217269
  5.5955879718199037 10.1792392670205043 13.1131001710878525
  5.5954139990068228  9.6380787614170345 14.4338030801734760
  0.5881067403262543 13.4938405656007472 21.1345355688834964
  6.8306724526001359  9.5028750162618074 15.1375362233212485
  5.5898610082202156  9.6844166261770042 17.2600463731567402
  6.8286678155406193  9.5185722197129401 16.5661407618005541
  5.6336283708193697 12.3210668462682040 20.5103132415675624
  5.5871263047191668 10.2666583584889537 18.5637363478141353
  6.8302552436489128 10.6310483558808819 19.1566273990087765
  6.9322372433999941 14.1993903077186090 21.2438938357750438
  6.8467603056872095 11.6476054575061454 20.1518129217050266
  6.8332885901106257 10.5769087440519556 12.5227714012231903
 11.7825449075670470  9.4969321285101493 15.1399042285360661
  6.8467200092131737 18.1813260960351393 20.1519647103158093
 11.7812627528312284 10.5670859278658806 19.1835097681015725
  6.8288489614517953 20.3094146979840424 16.5655359398848709
  6.8303090283254573 19.1972886953381376 19.1562065128337977
  5.5956395591225627 20.1907605316140888 14.4330006894447695
  6.8308690047424871 20.3255881002147554 15.1369115693571441
  5.5958546258231268 17.6490973551680028 11.1156774522518909
  5.5958160609212086 19.6502782898671917 13.1119223049549678
  6.8335114757305577 19.2526527661676070 12.5216167095492192
  9.3072762425316959 10.5788327886954185 12.5268085513503635
  5.5956639800032031 16.3286422344176003 10.5716820371525380
  6.8332510450325303 18.2421749677084399 11.5120605102392926
  5.5955887721079662 13.5007354307273140 10.5725270344608830
  6.8327117610693291 14.2004200549427448 10.4339861146995894
  5.5956742771087882 12.1805917574564297 11.1170457895348420
  6.8330510343887250 11.5875261553537570 11.5134313183548755
  8.0699302046023149 10.1817473735948774 13.1187813088794201
  9.3060651746174994  9.4970361554666134 15.1398785463844572
  8.0669456640515556  9.6464005492982814 17.2657109896217733
  8.0703475007092180 17.6479233395133690 11.1181075369997941
  8.0667124292584607 19.6319727700480655 18.5830651283854209
  8.0941603531799764 12.1827242754349978 20.5820023370409118
  8.0666621753008805 10.1963622576068822 18.5834016192155786
  9.3077595779958404 10.5673341958343308 19.1834213232772868
  8.1294751070050193 13.4938065602777080 21.1351705047974114
  9.3409294070023527 14.2020958641879957 21.2854871215662378
  9.3156150255440338 11.5677468254904596 20.2007299825018087
  8.1293484300698395 16.3356034433305553 21.1358073019166710
 10.5446351121471942 13.4832366969469319 21.1465111331247826
  9.3053602836799705  9.4953527102451574 16.5681763359606222
  8.0941858137027367 17.6467280651480429 20.5827143401975974
  9.3155913847299416 18.2618778143795808 20.2016068785830534
  8.0670884754320884 20.1816059814295699 17.2652543781726884
  9.3055157722934965 20.3329488964337983 16.5679441875630964
  9.3077770534462552 19.2616224328290713 19.1836217506531668
  8.0695459793358122 20.1919144134207045 14.4384245242671767
  9.3063034062068439 20.3314100631598862 15.1396221735969849
  9.3410442563781224 15.6274655614171465 21.2859859770866002
  6.8327593254191150 15.6288591555873353 10.4335563219389584
  8.0693039130163093  9.6367817953243389 14.4389248435650899
  8.0701559644911640 19.6474140687830428 13.1180240090797007
  5.5900136837119332 20.1432648492075366 17.2592837964311201
  9.3070819247432297 15.6284243327980832 10.4338487765571735
  9.3073075672088645 18.2407259663533488 11.5161956712854519
  8.0699527165249609 13.5007924805454316 10.5731857601737005
  9.3070447435996257 14.2006128728355510 10.4340650905240615
  8.0701434390244877 12.1814973344574398 11.1191233402975271
  9.3070939965258059 11.5883661796463144 11.5168099723929487
 10.5441815140151629 10.1829483140583221 13.1207584744174888
 11.7735337430345641 11.5676361954597269 20.2007229028520499
 10.5442841050533733  9.6363729197556616 14.4407955608366514
 11.7810567191257647 10.5788475912273121 12.5268452526160807
 10.5444125967311102  9.6286640727178181 17.2674499275872506
 11.7834114845034357  9.4951500312311659 16.5682278414922806
 10.5445973899381258 12.1589897962332465 20.6072089164901158
 10.5444733322222319 10.1680080251146450 18.5890836496494316
 10.5446434895874859 16.3465879041051352 21.1477148125609240
  9.3075369231411482 19.2501287007146438 12.5263270652910279
 11.7483447738029021 14.2021387832664310 21.2850931074067020
 11.7811867481057586 14.2004914429770448 10.4339356760854329
  8.0700324557377314 16.3284566022652626 10.5725087477559985
 10.5445625975069603 19.6607235385632855 18.5892000630290966
 10.5446401171502071 17.6709671606463274 20.6086277410671386
 11.7736512469304699 18.2621510459150258 20.2018061146981793
 10.5445281691867034 20.1997841502511370 17.2673889082415108
 10.5442902662683000 17.6472973800586530 11.1203786892566683
 11.7814077417770999 19.2620492868423412 19.1838889104809844
 10.5445122750593381 20.1921219390946121 14.4406168698455879
 11.7835544447659899 20.3332285762249967 16.5681309748014094
 11.7827036010456343 20.3314660753982928 15.1398165109091298
 10.5444169682783535 19.6456626835988573 13.1205739279540587
 11.7812573280093655 19.2498417624392211 12.5266355458440692
 10.5442108112253159 16.3278802058524803 10.5730948262900597
 11.7812474851206375 15.6282710141665255 10.4339010132922851
 11.7812781431220213 18.2404675615437988 11.5165229822539406
 10.5441011080772338 13.5009466224221679 10.5733651854760264
 11.7483035970195715 15.6274981489469713 21.2857713551709473
  2.9750462219649103 16.2711317330934335 21.0611239444848088
  5.7425857227587151 13.5578942552789208 21.0610630271439376
  5.7425438066570251 16.2711768940117416 21.0615563576826901
  2.9749292052686438 13.5578348523889574 21.0608705177066931
  4.3585067395389112 14.9126179887549206 23.4199834962443383
  4.3587930313113743 14.9144291974310210 21.2236787966819591
