CONTCAR-pd10                            
   1.00000000000000     
    19.2000007629000002    0.0000000000000000    0.0000000000000000
    -9.6000003814999992   16.6276884134000014    0.0000000000000000
     0.0000000000000000    0.0000000000000000   15.0000000000000000
   C    Pd
    72     8
Direct
  0.1624977194244710  0.2640110173659043  0.2141734048952644
  0.0125333836520362  0.2654063203587113  0.2022168237506049
  0.0873011092699974  0.1890329683609273  0.2064808478746540
  0.0883298079707995  0.3408226595714639  0.2061373533054668
  0.1631702069882370  0.3400752354868417  0.2130527811526130
  0.0121828243154377  0.1896353314023430  0.2019169796628638
  0.2357574939891262  0.2616185186812378  0.2273962104028384
  0.9388534585434311  0.2659628058831845  0.1999138814942442
  0.0872073284739077  0.1146727046589395  0.2051578736911160
  0.0887139819682175  0.4152928316001062  0.2052039898574103
  0.2379181146219632  0.4147519475128031  0.2240737199641963
  0.9383857867637798  0.1156530059820724  0.1986544480905393
  0.2958543405882764  0.2505817077110200  0.2144045709376908
  0.3674332141733657  0.2529718433309414  0.1999996879694792
  0.0876653628230013  0.0503317151673933  0.2037044948426666
  0.0882003761909462  0.9795920875382808  0.2021850425908436
  0.3037801502057668  0.9792094640257862  0.1945132962976598
  0.3752751121349360  0.0496893707930728  0.1931855771292889
  0.6657355278963218  0.2676397013987686  0.2001812204071940
  0.5132163566944772  0.2623849474129496  0.2029731618516796
  0.5909577981973003  0.1905337672525119  0.1961993771285130
  0.5874414469804116  0.3392134845182995  0.2165424309705418
  0.6643498999090818  0.3425083763384963  0.2082162385988365
  0.5143202533235607  0.1881348178000596  0.1954709986252298
  0.7401907571376832  0.2687058361655331  0.1988250574789207
  0.4396145023478156  0.2646293634508778  0.2038288517972775
  0.5930101052177402  0.1178122308577812  0.1940512938638615
  0.5758320537237648  0.4070972665289738  0.2449745447078705
  0.7379225826170885  0.4172550302786200  0.2096042709023797
  0.4404626091333104  0.1136215572697097  0.1926106170063377
  0.8043878309715909  0.2678111770030079  0.1987574427731420
  0.8746742397443239  0.2668581007449646  0.1990984376698939
  0.5935501904969085  0.0534628992050053  0.1933559458407888
  0.5937328202183824  0.9829088716988059  0.1928865411114180
  0.8044795861059050  0.9790909986943037  0.1956901744560187
  0.8745881799399873  0.0504269401350613  0.1969591906023168
  0.1644975129311215  0.7656564231649290  0.1990208198953488
  0.0135112556719003  0.7655076289953663  0.2013359641545042
  0.0889834379660038  0.6898729771868631  0.2013585689143202
  0.0887886983970466  0.8410629191636899  0.2002242209358712
  0.1644113253308334  0.8410353329511496  0.1985342379789148
  0.0136762382610761  0.6899661173406096  0.2023714904837094
  0.2388525841470790  0.7660090520038870  0.1973098936420183
  0.9389550883338806  0.7647962673813934  0.2014144397293178
  0.0891168619024715  0.6156564939667032  0.2024312898552474
  0.0886765469534744  0.9152644559836346  0.2009341422312181
  0.2387707642211867  0.9151621837561207  0.1963511440964195
  0.9392280347868160  0.6159611501666881  0.2045001205271962
  0.3039631019852242  0.7672132693631756  0.1958595179868049
  0.3755396511711167  0.7684984982283298  0.1945023537404256
  0.0889124866958646  0.5509844567074331  0.2033938065696746
  0.0887808047855053  0.4799070802250812  0.2044174163009335
  0.2967155939274455  0.4871353771353377  0.2130175721160613
  0.3685467291081137  0.5567352506870615  0.2028414114200173
  0.6647641608180459  0.7646502299879024  0.1988662612407890
  0.5146406365051023  0.7692661700463046  0.1940205835305998
  0.5879264763778855  0.6905932392716035  0.2040130076070761
  0.5913458218080216  0.8433403899560207  0.1935445145021119
  0.6659657593572504  0.8406490069173398  0.1951115138337874
  0.5136760513948472  0.6940138263356007  0.1985394553624880
  0.7381696028697950  0.7633459683462296  0.2003751817206758
  0.4408046986475182  0.7699822864357966  0.1935520947011730
  0.5772228512859079  0.6119857600468382  0.2197911191751374
  0.5935176134477871  0.9181772678959600  0.1927940398990912
  0.7404081430330902  0.9140858572362109  0.1949862941341834
  0.4405125065106573  0.6181354739446987  0.2034721408212868
  0.8026743154733024  0.7631934603959458  0.2008044717764595
  0.8739220315243198  0.7638211754853588  0.2011618680958109
  0.5983077936314444  0.5563765617295748  0.2331175676253639
  0.5989961668553498  0.4872982644003591  0.2442857851330243
  0.8028146504260306  0.4814783338507796  0.2082888911642462
  0.8742142233640163  0.5519506532491411  0.2064567025471247
  0.3129618025118805  0.2994191293698661  0.3461742912493765
  0.4329589112538039  0.3535685796799115  0.4603466412593257
  0.5679118472386074  0.3698872179056037  0.3751206373249834
  0.4168018579718114  0.4777384154833506  0.4652187149114811
  0.3228294434878959  0.4391332405655083  0.3296052403238378
  0.4517302893208537  0.3675292068279251  0.2659224787876934
  0.5394349701915020  0.4948198851765290  0.3662094562341331
  0.4596942483637892  0.5274586938674165  0.2505858447590700
 
  0.00000000E+00  0.00000000E+00  0.00000000E+00
  0.00000000E+00  0.00000000E+00  0.00000000E+00
  0.00000000E+00  0.00000000E+00  0.00000000E+00
  0.00000000E+00  0.00000000E+00  0.00000000E+00
  0.00000000E+00  0.00000000E+00  0.00000000E+00
  0.00000000E+00  0.00000000E+00  0.00000000E+00
  0.00000000E+00  0.00000000E+00  0.00000000E+00
  0.00000000E+00  0.00000000E+00  0.00000000E+00
  0.00000000E+00  0.00000000E+00  0.00000000E+00
  0.00000000E+00  0.00000000E+00  0.00000000E+00
  0.00000000E+00  0.00000000E+00  0.00000000E+00
  0.00000000E+00  0.00000000E+00  0.00000000E+00
  0.00000000E+00  0.00000000E+00  0.00000000E+00
  0.00000000E+00  0.00000000E+00  0.00000000E+00
  0.00000000E+00  0.00000000E+00  0.00000000E+00
  0.00000000E+00  0.00000000E+00  0.00000000E+00
  0.00000000E+00  0.00000000E+00  0.00000000E+00
  0.00000000E+00  0.00000000E+00  0.00000000E+00
  0.00000000E+00  0.00000000E+00  0.00000000E+00
  0.00000000E+00  0.00000000E+00  0.00000000E+00
  0.00000000E+00  0.00000000E+00  0.00000000E+00
  0.00000000E+00  0.00000000E+00  0.00000000E+00
  0.00000000E+00  0.00000000E+00  0.00000000E+00
  0.00000000E+00  0.00000000E+00  0.00000000E+00
  0.00000000E+00  0.00000000E+00  0.00000000E+00
  0.00000000E+00  0.00000000E+00  0.00000000E+00
  0.00000000E+00  0.00000000E+00  0.00000000E+00
  0.00000000E+00  0.00000000E+00  0.00000000E+00
  0.00000000E+00  0.00000000E+00  0.00000000E+00
  0.00000000E+00  0.00000000E+00  0.00000000E+00
  0.00000000E+00  0.00000000E+00  0.00000000E+00
  0.00000000E+00  0.00000000E+00  0.00000000E+00
  0.00000000E+00  0.00000000E+00  0.00000000E+00
  0.00000000E+00  0.00000000E+00  0.00000000E+00
  0.00000000E+00  0.00000000E+00  0.00000000E+00
  0.00000000E+00  0.00000000E+00  0.00000000E+00
  0.00000000E+00  0.00000000E+00  0.00000000E+00
  0.00000000E+00  0.00000000E+00  0.00000000E+00
  0.00000000E+00  0.00000000E+00  0.00000000E+00
  0.00000000E+00  0.00000000E+00  0.00000000E+00
  0.00000000E+00  0.00000000E+00  0.00000000E+00
  0.00000000E+00  0.00000000E+00  0.00000000E+00
  0.00000000E+00  0.00000000E+00  0.00000000E+00
  0.00000000E+00  0.00000000E+00  0.00000000E+00
  0.00000000E+00  0.00000000E+00  0.00000000E+00
  0.00000000E+00  0.00000000E+00  0.00000000E+00
  0.00000000E+00  0.00000000E+00  0.00000000E+00
  0.00000000E+00  0.00000000E+00  0.00000000E+00
  0.00000000E+00  0.00000000E+00  0.00000000E+00
  0.00000000E+00  0.00000000E+00  0.00000000E+00
  0.00000000E+00  0.00000000E+00  0.00000000E+00
  0.00000000E+00  0.00000000E+00  0.00000000E+00
  0.00000000E+00  0.00000000E+00  0.00000000E+00
  0.00000000E+00  0.00000000E+00  0.00000000E+00
  0.00000000E+00  0.00000000E+00  0.00000000E+00
  0.00000000E+00  0.00000000E+00  0.00000000E+00
  0.00000000E+00  0.00000000E+00  0.00000000E+00
  0.00000000E+00  0.00000000E+00  0.00000000E+00
  0.00000000E+00  0.00000000E+00  0.00000000E+00
  0.00000000E+00  0.00000000E+00  0.00000000E+00
  0.00000000E+00  0.00000000E+00  0.00000000E+00
  0.00000000E+00  0.00000000E+00  0.00000000E+00
  0.00000000E+00  0.00000000E+00  0.00000000E+00
  0.00000000E+00  0.00000000E+00  0.00000000E+00
  0.00000000E+00  0.00000000E+00  0.00000000E+00
  0.00000000E+00  0.00000000E+00  0.00000000E+00
  0.00000000E+00  0.00000000E+00  0.00000000E+00
  0.00000000E+00  0.00000000E+00  0.00000000E+00
  0.00000000E+00  0.00000000E+00  0.00000000E+00
  0.00000000E+00  0.00000000E+00  0.00000000E+00
  0.00000000E+00  0.00000000E+00  0.00000000E+00
  0.00000000E+00  0.00000000E+00  0.00000000E+00
  0.00000000E+00  0.00000000E+00  0.00000000E+00
  0.00000000E+00  0.00000000E+00  0.00000000E+00
  0.00000000E+00  0.00000000E+00  0.00000000E+00
  0.00000000E+00  0.00000000E+00  0.00000000E+00
  0.00000000E+00  0.00000000E+00  0.00000000E+00
  0.00000000E+00  0.00000000E+00  0.00000000E+00
  0.00000000E+00  0.00000000E+00  0.00000000E+00
  0.00000000E+00  0.00000000E+00  0.00000000E+00
